p cnf 280 2440
1 2 3 4 5 6 7 0
8 9 10 11 12 13 14 0
15 16 17 18 19 20 21 0
22 23 24 25 26 27 28 0
29 30 31 32 33 34 35 0
36 37 38 39 40 41 42 0
43 44 45 46 47 48 49 0
50 51 52 53 54 55 56 0
57 58 59 60 61 62 63 0
64 65 66 67 68 69 70 0
71 72 73 74 75 76 77 0
78 79 80 81 82 83 84 0
85 86 87 88 89 90 91 0
92 93 94 95 96 97 98 0
99 100 101 102 103 104 105 0
106 107 108 109 110 111 112 0
113 114 115 116 117 118 119 0
120 121 122 123 124 125 126 0
127 128 129 130 131 132 133 0
134 135 136 137 138 139 140 0
141 142 143 144 145 146 147 0
148 149 150 151 152 153 154 0
155 156 157 158 159 160 161 0
162 163 164 165 166 167 168 0
169 170 171 172 173 174 175 0
176 177 178 179 180 181 182 0
183 184 185 186 187 188 189 0
190 191 192 193 194 195 196 0
197 198 199 200 201 202 203 0
204 205 206 207 208 209 210 0
211 212 213 214 215 216 217 0
218 219 220 221 222 223 224 0
225 226 227 228 229 230 231 0
232 233 234 235 236 237 238 0
239 240 241 242 243 244 245 0
246 247 248 249 250 251 252 0
253 254 255 256 257 258 259 0
260 261 262 263 264 265 266 0
267 268 269 270 271 272 273 0
274 275 276 277 278 279 280 0
-1 -2 0
-1 -3 0
-1 -4 0
-1 -5 0
-1 -6 0
-1 -7 0
-2 -3 0
-2 -4 0
-2 -5 0
-2 -6 0
-2 -7 0
-3 -4 0
-3 -5 0
-3 -6 0
-3 -7 0
-4 -5 0
-4 -6 0
-4 -7 0
-5 -6 0
-5 -7 0
-6 -7 0
-8 -9 0
-8 -10 0
-8 -11 0
-8 -12 0
-8 -13 0
-8 -14 0
-9 -10 0
-9 -11 0
-9 -12 0
-9 -13 0
-9 -14 0
-10 -11 0
-10 -12 0
-10 -13 0
-10 -14 0
-11 -12 0
-11 -13 0
-11 -14 0
-12 -13 0
-12 -14 0
-13 -14 0
-15 -16 0
-15 -17 0
-15 -18 0
-15 -19 0
-15 -20 0
-15 -21 0
-16 -17 0
-16 -18 0
-16 -19 0
-16 -20 0
-16 -21 0
-17 -18 0
-17 -19 0
-17 -20 0
-17 -21 0
-18 -19 0
-18 -20 0
-18 -21 0
-19 -20 0
-19 -21 0
-20 -21 0
-22 -23 0
-22 -24 0
-22 -25 0
-22 -26 0
-22 -27 0
-22 -28 0
-23 -24 0
-23 -25 0
-23 -26 0
-23 -27 0
-23 -28 0
-24 -25 0
-24 -26 0
-24 -27 0
-24 -28 0
-25 -26 0
-25 -27 0
-25 -28 0
-26 -27 0
-26 -28 0
-27 -28 0
-29 -30 0
-29 -31 0
-29 -32 0
-29 -33 0
-29 -34 0
-29 -35 0
-30 -31 0
-30 -32 0
-30 -33 0
-30 -34 0
-30 -35 0
-31 -32 0
-31 -33 0
-31 -34 0
-31 -35 0
-32 -33 0
-32 -34 0
-32 -35 0
-33 -34 0
-33 -35 0
-34 -35 0
-36 -37 0
-36 -38 0
-36 -39 0
-36 -40 0
-36 -41 0
-36 -42 0
-37 -38 0
-37 -39 0
-37 -40 0
-37 -41 0
-37 -42 0
-38 -39 0
-38 -40 0
-38 -41 0
-38 -42 0
-39 -40 0
-39 -41 0
-39 -42 0
-40 -41 0
-40 -42 0
-41 -42 0
-43 -44 0
-43 -45 0
-43 -46 0
-43 -47 0
-43 -48 0
-43 -49 0
-44 -45 0
-44 -46 0
-44 -47 0
-44 -48 0
-44 -49 0
-45 -46 0
-45 -47 0
-45 -48 0
-45 -49 0
-46 -47 0
-46 -48 0
-46 -49 0
-47 -48 0
-47 -49 0
-48 -49 0
-50 -51 0
-50 -52 0
-50 -53 0
-50 -54 0
-50 -55 0
-50 -56 0
-51 -52 0
-51 -53 0
-51 -54 0
-51 -55 0
-51 -56 0
-52 -53 0
-52 -54 0
-52 -55 0
-52 -56 0
-53 -54 0
-53 -55 0
-53 -56 0
-54 -55 0
-54 -56 0
-55 -56 0
-57 -58 0
-57 -59 0
-57 -60 0
-57 -61 0
-57 -62 0
-57 -63 0
-58 -59 0
-58 -60 0
-58 -61 0
-58 -62 0
-58 -63 0
-59 -60 0
-59 -61 0
-59 -62 0
-59 -63 0
-60 -61 0
-60 -62 0
-60 -63 0
-61 -62 0
-61 -63 0
-62 -63 0
-64 -65 0
-64 -66 0
-64 -67 0
-64 -68 0
-64 -69 0
-64 -70 0
-65 -66 0
-65 -67 0
-65 -68 0
-65 -69 0
-65 -70 0
-66 -67 0
-66 -68 0
-66 -69 0
-66 -70 0
-67 -68 0
-67 -69 0
-67 -70 0
-68 -69 0
-68 -70 0
-69 -70 0
-71 -72 0
-71 -73 0
-71 -74 0
-71 -75 0
-71 -76 0
-71 -77 0
-72 -73 0
-72 -74 0
-72 -75 0
-72 -76 0
-72 -77 0
-73 -74 0
-73 -75 0
-73 -76 0
-73 -77 0
-74 -75 0
-74 -76 0
-74 -77 0
-75 -76 0
-75 -77 0
-76 -77 0
-78 -79 0
-78 -80 0
-78 -81 0
-78 -82 0
-78 -83 0
-78 -84 0
-79 -80 0
-79 -81 0
-79 -82 0
-79 -83 0
-79 -84 0
-80 -81 0
-80 -82 0
-80 -83 0
-80 -84 0
-81 -82 0
-81 -83 0
-81 -84 0
-82 -83 0
-82 -84 0
-83 -84 0
-85 -86 0
-85 -87 0
-85 -88 0
-85 -89 0
-85 -90 0
-85 -91 0
-86 -87 0
-86 -88 0
-86 -89 0
-86 -90 0
-86 -91 0
-87 -88 0
-87 -89 0
-87 -90 0
-87 -91 0
-88 -89 0
-88 -90 0
-88 -91 0
-89 -90 0
-89 -91 0
-90 -91 0
-92 -93 0
-92 -94 0
-92 -95 0
-92 -96 0
-92 -97 0
-92 -98 0
-93 -94 0
-93 -95 0
-93 -96 0
-93 -97 0
-93 -98 0
-94 -95 0
-94 -96 0
-94 -97 0
-94 -98 0
-95 -96 0
-95 -97 0
-95 -98 0
-96 -97 0
-96 -98 0
-97 -98 0
-99 -100 0
-99 -101 0
-99 -102 0
-99 -103 0
-99 -104 0
-99 -105 0
-100 -101 0
-100 -102 0
-100 -103 0
-100 -104 0
-100 -105 0
-101 -102 0
-101 -103 0
-101 -104 0
-101 -105 0
-102 -103 0
-102 -104 0
-102 -105 0
-103 -104 0
-103 -105 0
-104 -105 0
-106 -107 0
-106 -108 0
-106 -109 0
-106 -110 0
-106 -111 0
-106 -112 0
-107 -108 0
-107 -109 0
-107 -110 0
-107 -111 0
-107 -112 0
-108 -109 0
-108 -110 0
-108 -111 0
-108 -112 0
-109 -110 0
-109 -111 0
-109 -112 0
-110 -111 0
-110 -112 0
-111 -112 0
-113 -114 0
-113 -115 0
-113 -116 0
-113 -117 0
-113 -118 0
-113 -119 0
-114 -115 0
-114 -116 0
-114 -117 0
-114 -118 0
-114 -119 0
-115 -116 0
-115 -117 0
-115 -118 0
-115 -119 0
-116 -117 0
-116 -118 0
-116 -119 0
-117 -118 0
-117 -119 0
-118 -119 0
-120 -121 0
-120 -122 0
-120 -123 0
-120 -124 0
-120 -125 0
-120 -126 0
-121 -122 0
-121 -123 0
-121 -124 0
-121 -125 0
-121 -126 0
-122 -123 0
-122 -124 0
-122 -125 0
-122 -126 0
-123 -124 0
-123 -125 0
-123 -126 0
-124 -125 0
-124 -126 0
-125 -126 0
-127 -128 0
-127 -129 0
-127 -130 0
-127 -131 0
-127 -132 0
-127 -133 0
-128 -129 0
-128 -130 0
-128 -131 0
-128 -132 0
-128 -133 0
-129 -130 0
-129 -131 0
-129 -132 0
-129 -133 0
-130 -131 0
-130 -132 0
-130 -133 0
-131 -132 0
-131 -133 0
-132 -133 0
-134 -135 0
-134 -136 0
-134 -137 0
-134 -138 0
-134 -139 0
-134 -140 0
-135 -136 0
-135 -137 0
-135 -138 0
-135 -139 0
-135 -140 0
-136 -137 0
-136 -138 0
-136 -139 0
-136 -140 0
-137 -138 0
-137 -139 0
-137 -140 0
-138 -139 0
-138 -140 0
-139 -140 0
-141 -142 0
-141 -143 0
-141 -144 0
-141 -145 0
-141 -146 0
-141 -147 0
-142 -143 0
-142 -144 0
-142 -145 0
-142 -146 0
-142 -147 0
-143 -144 0
-143 -145 0
-143 -146 0
-143 -147 0
-144 -145 0
-144 -146 0
-144 -147 0
-145 -146 0
-145 -147 0
-146 -147 0
-148 -149 0
-148 -150 0
-148 -151 0
-148 -152 0
-148 -153 0
-148 -154 0
-149 -150 0
-149 -151 0
-149 -152 0
-149 -153 0
-149 -154 0
-150 -151 0
-150 -152 0
-150 -153 0
-150 -154 0
-151 -152 0
-151 -153 0
-151 -154 0
-152 -153 0
-152 -154 0
-153 -154 0
-155 -156 0
-155 -157 0
-155 -158 0
-155 -159 0
-155 -160 0
-155 -161 0
-156 -157 0
-156 -158 0
-156 -159 0
-156 -160 0
-156 -161 0
-157 -158 0
-157 -159 0
-157 -160 0
-157 -161 0
-158 -159 0
-158 -160 0
-158 -161 0
-159 -160 0
-159 -161 0
-160 -161 0
-162 -163 0
-162 -164 0
-162 -165 0
-162 -166 0
-162 -167 0
-162 -168 0
-163 -164 0
-163 -165 0
-163 -166 0
-163 -167 0
-163 -168 0
-164 -165 0
-164 -166 0
-164 -167 0
-164 -168 0
-165 -166 0
-165 -167 0
-165 -168 0
-166 -167 0
-166 -168 0
-167 -168 0
-169 -170 0
-169 -171 0
-169 -172 0
-169 -173 0
-169 -174 0
-169 -175 0
-170 -171 0
-170 -172 0
-170 -173 0
-170 -174 0
-170 -175 0
-171 -172 0
-171 -173 0
-171 -174 0
-171 -175 0
-172 -173 0
-172 -174 0
-172 -175 0
-173 -174 0
-173 -175 0
-174 -175 0
-176 -177 0
-176 -178 0
-176 -179 0
-176 -180 0
-176 -181 0
-176 -182 0
-177 -178 0
-177 -179 0
-177 -180 0
-177 -181 0
-177 -182 0
-178 -179 0
-178 -180 0
-178 -181 0
-178 -182 0
-179 -180 0
-179 -181 0
-179 -182 0
-180 -181 0
-180 -182 0
-181 -182 0
-183 -184 0
-183 -185 0
-183 -186 0
-183 -187 0
-183 -188 0
-183 -189 0
-184 -185 0
-184 -186 0
-184 -187 0
-184 -188 0
-184 -189 0
-185 -186 0
-185 -187 0
-185 -188 0
-185 -189 0
-186 -187 0
-186 -188 0
-186 -189 0
-187 -188 0
-187 -189 0
-188 -189 0
-190 -191 0
-190 -192 0
-190 -193 0
-190 -194 0
-190 -195 0
-190 -196 0
-191 -192 0
-191 -193 0
-191 -194 0
-191 -195 0
-191 -196 0
-192 -193 0
-192 -194 0
-192 -195 0
-192 -196 0
-193 -194 0
-193 -195 0
-193 -196 0
-194 -195 0
-194 -196 0
-195 -196 0
-197 -198 0
-197 -199 0
-197 -200 0
-197 -201 0
-197 -202 0
-197 -203 0
-198 -199 0
-198 -200 0
-198 -201 0
-198 -202 0
-198 -203 0
-199 -200 0
-199 -201 0
-199 -202 0
-199 -203 0
-200 -201 0
-200 -202 0
-200 -203 0
-201 -202 0
-201 -203 0
-202 -203 0
-204 -205 0
-204 -206 0
-204 -207 0
-204 -208 0
-204 -209 0
-204 -210 0
-205 -206 0
-205 -207 0
-205 -208 0
-205 -209 0
-205 -210 0
-206 -207 0
-206 -208 0
-206 -209 0
-206 -210 0
-207 -208 0
-207 -209 0
-207 -210 0
-208 -209 0
-208 -210 0
-209 -210 0
-211 -212 0
-211 -213 0
-211 -214 0
-211 -215 0
-211 -216 0
-211 -217 0
-212 -213 0
-212 -214 0
-212 -215 0
-212 -216 0
-212 -217 0
-213 -214 0
-213 -215 0
-213 -216 0
-213 -217 0
-214 -215 0
-214 -216 0
-214 -217 0
-215 -216 0
-215 -217 0
-216 -217 0
-218 -219 0
-218 -220 0
-218 -221 0
-218 -222 0
-218 -223 0
-218 -224 0
-219 -220 0
-219 -221 0
-219 -222 0
-219 -223 0
-219 -224 0
-220 -221 0
-220 -222 0
-220 -223 0
-220 -224 0
-221 -222 0
-221 -223 0
-221 -224 0
-222 -223 0
-222 -224 0
-223 -224 0
-225 -226 0
-225 -227 0
-225 -228 0
-225 -229 0
-225 -230 0
-225 -231 0
-226 -227 0
-226 -228 0
-226 -229 0
-226 -230 0
-226 -231 0
-227 -228 0
-227 -229 0
-227 -230 0
-227 -231 0
-228 -229 0
-228 -230 0
-228 -231 0
-229 -230 0
-229 -231 0
-230 -231 0
-232 -233 0
-232 -234 0
-232 -235 0
-232 -236 0
-232 -237 0
-232 -238 0
-233 -234 0
-233 -235 0
-233 -236 0
-233 -237 0
-233 -238 0
-234 -235 0
-234 -236 0
-234 -237 0
-234 -238 0
-235 -236 0
-235 -237 0
-235 -238 0
-236 -237 0
-236 -238 0
-237 -238 0
-239 -240 0
-239 -241 0
-239 -242 0
-239 -243 0
-239 -244 0
-239 -245 0
-240 -241 0
-240 -242 0
-240 -243 0
-240 -244 0
-240 -245 0
-241 -242 0
-241 -243 0
-241 -244 0
-241 -245 0
-242 -243 0
-242 -244 0
-242 -245 0
-243 -244 0
-243 -245 0
-244 -245 0
-246 -247 0
-246 -248 0
-246 -249 0
-246 -250 0
-246 -251 0
-246 -252 0
-247 -248 0
-247 -249 0
-247 -250 0
-247 -251 0
-247 -252 0
-248 -249 0
-248 -250 0
-248 -251 0
-248 -252 0
-249 -250 0
-249 -251 0
-249 -252 0
-250 -251 0
-250 -252 0
-251 -252 0
-253 -254 0
-253 -255 0
-253 -256 0
-253 -257 0
-253 -258 0
-253 -259 0
-254 -255 0
-254 -256 0
-254 -257 0
-254 -258 0
-254 -259 0
-255 -256 0
-255 -257 0
-255 -258 0
-255 -259 0
-256 -257 0
-256 -258 0
-256 -259 0
-257 -258 0
-257 -259 0
-258 -259 0
-260 -261 0
-260 -262 0
-260 -263 0
-260 -264 0
-260 -265 0
-260 -266 0
-261 -262 0
-261 -263 0
-261 -264 0
-261 -265 0
-261 -266 0
-262 -263 0
-262 -264 0
-262 -265 0
-262 -266 0
-263 -264 0
-263 -265 0
-263 -266 0
-264 -265 0
-264 -266 0
-265 -266 0
-267 -268 0
-267 -269 0
-267 -270 0
-267 -271 0
-267 -272 0
-267 -273 0
-268 -269 0
-268 -270 0
-268 -271 0
-268 -272 0
-268 -273 0
-269 -270 0
-269 -271 0
-269 -272 0
-269 -273 0
-270 -271 0
-270 -272 0
-270 -273 0
-271 -272 0
-271 -273 0
-272 -273 0
-274 -275 0
-274 -276 0
-274 -277 0
-274 -278 0
-274 -279 0
-274 -280 0
-275 -276 0
-275 -277 0
-275 -278 0
-275 -279 0
-275 -280 0
-276 -277 0
-276 -278 0
-276 -279 0
-276 -280 0
-277 -278 0
-277 -279 0
-277 -280 0
-278 -279 0
-278 -280 0
-279 -280 0
-7 -11 0
-7 -14 0
-2 -9 0
-5 -8 0
-2 -26 0
-2 -27 0
-7 -27 0
-1 -25 0
-5 -33 0
-6 -33 0
-3 -29 0
-3 -33 0
-3 -47 0
-3 -44 0
-6 -44 0
-3 -45 0
-1 -52 0
-7 -53 0
-1 -53 0
-3 -53 0
-2 -70 0
-5 -69 0
-2 -66 0
-3 -70 0
-1 -73 0
-1 -71 0
-3 -75 0
-2 -77 0
-7 -87 0
-4 -89 0
-5 -87 0
-6 -88 0
-4 -117 0
-4 -116 0
-5 -116 0
-7 -115 0
-6 -126 0
-1 -120 0
-3 -121 0
-6 -122 0
-7 -129 0
-6 -130 0
-2 -133 0
-4 -127 0
-6 -135 0
-4 -137 0
-7 -137 0
-4 -140 0
-6 -154 0
-2 -151 0
-3 -148 0
-2 -148 0
-2 -157 0
-1 -157 0
-6 -157 0
-7 -161 0
-7 -167 0
-6 -168 0
-4 -165 0
-7 -164 0
-5 -185 0
-4 -187 0
-1 -189 0
-1 -183 0
-1 -198 0
-6 -202 0
-1 -203 0
-7 -197 0
-6 -212 0
-5 -216 0
-3 -211 0
-7 -214 0
-4 -220 0
-1 -223 0
-2 -223 0
-2 -222 0
-7 -229 0
-7 -228 0
-2 -230 0
-7 -227 0
-2 -234 0
-5 -232 0
-4 -234 0
-5 -238 0
-6 -250 0
-7 -250 0
-1 -251 0
-2 -247 0
-7 -258 0
-7 -253 0
-3 -256 0
-7 -254 0
-5 -280 0
-7 -277 0
-1 -280 0
-4 -276 0
-8 -19 0
-12 -18 0
-9 -18 0
-11 -21 0
-8 -26 0
-10 -27 0
-9 -27 0
-9 -22 0
-8 -44 0
-14 -45 0
-8 -46 0
-8 -48 0
-9 -63 0
-9 -60 0
-11 -63 0
-14 -58 0
-9 -76 0
-13 -77 0
-11 -75 0
-11 -71 0
-13 -83 0
-8 -81 0
-8 -78 0
-11 -83 0
-13 -110 0
-14 -106 0
-13 -112 0
-13 -111 0
-8 -121 0
-8 -122 0
-10 -126 0
-9 -120 0
-12 -133 0
-8 -130 0
-14 -131 0
-9 -129 0
-11 -134 0
-13 -134 0
-14 -137 0
-10 -135 0
-10 -142 0
-11 -141 0
-14 -147 0
-8 -147 0
-14 -160 0
-12 -155 0
-11 -160 0
-14 -155 0
-12 -207 0
-13 -207 0
-13 -210 0
-8 -208 0
-9 -216 0
-9 -213 0
-14 -216 0
-13 -211 0
-14 -219 0
-14 -224 0
-8 -221 0
-12 -218 0
-10 -237 0
-14 -235 0
-12 -233 0
-9 -233 0
-12 -242 0
-13 -240 0
-9 -243 0
-12 -239 0
-10 -253 0
-14 -259 0
-13 -256 0
-8 -256 0
-12 -272 0
-12 -269 0
-14 -268 0
-10 -268 0
-15 -22 0
-17 -23 0
-16 -24 0
-19 -26 0
-17 -48 0
-16 -44 0
-16 -48 0
-15 -48 0
-18 -56 0
-21 -56 0
-20 -55 0
-21 -52 0
-16 -66 0
-21 -68 0
-21 -67 0
-16 -64 0
-20 -88 0
-16 -85 0
-16 -90 0
-21 -85 0
-19 -94 0
-21 -98 0
-21 -97 0
-20 -94 0
-16 -113 0
-15 -116 0
-16 -117 0
-18 -118 0
-21 -125 0
-15 -125 0
-15 -124 0
-19 -124 0
-21 -133 0
-17 -128 0
-19 -127 0
-19 -128 0
-20 -140 0
-20 -134 0
-16 -137 0
-15 -135 0
-19 -148 0
-16 -150 0
-18 -150 0
-19 -151 0
-20 -160 0
-16 -161 0
-16 -156 0
-16 -158 0
-18 -172 0
-17 -174 0
-19 -170 0
-17 -173 0
-18 -177 0
-17 -179 0
-17 -180 0
-18 -176 0
-19 -186 0
-15 -184 0
-21 -186 0
-18 -186 0
-20 -193 0
-17 -190 0
-16 -195 0
-18 -196 0
-16 -216 0
-20 -216 0
-17 -217 0
-18 -214 0
-15 -220 0
-20 -221 0
-20 -222 0
-15 -219 0
-15 -232 0
-19 -232 0
-21 -235 0
-17 -234 0
-19 -245 0
-21 -241 0
-18 -241 0
-18 -239 0
-19 -249 0
-18 -249 0
-20 -251 0
-16 -246 0
-22 -31 0
-22 -33 0
-27 -32 0
-25 -32 0
-26 -55 0
-28 -50 0
-24 -55 0
-28 -53 0
-23 -64 0
-24 -64 0
-26 -68 0
-22 -68 0
-26 -89 0
-28 -90 0
-24 -90 0
-23 -89 0
-28 -97 0
-26 -93 0
-28 -98 0
-22 -93 0
-28 -110 0
-22 -106 0
-27 -106 0
-23 -107 0
-27 -114 0
-24 -115 0
-28 -117 0
-22 -114 0
-24 -140 0
-28 -134 0
-24 -137 0
-26 -138 0
-25 -165 0
-28 -163 0
-27 -167 0
-25 -162 0
-25 -170 0
-26 -169 0
-24 -173 0
-27 -169 0
-24 -179 0
-22 -178 0
-23 -182 0
-28 -182 0
-25 -189 0
-25 -184 0
-26 -187 0
-24 -188 0
-22 -193 0
-24 -195 0
-24 -196 0
-25 -191 0
-23 -243 0
-27 -239 0
-28 -243 0
-25 -239 0
-23 -248 0
-27 -246 0
-28 -252 0
-28 -251 0
-26 -278 0
-22 -280 0
-22 -275 0
-28 -275 0
-35 -48 0
-31 -47 0
-33 -43 0
-32 -45 0
-30 -55 0
-29 -50 0
-32 -56 0
-33 -51 0
-31 -74 0
-30 -77 0
-35 -76 0
-34 -71 0
-29 -111 0
-34 -109 0
-31 -111 0
-29 -108 0
-35 -115 0
-31 -114 0
-29 -117 0
-32 -117 0
-35 -136 0
-30 -139 0
-30 -137 0
-29 -136 0
-29 -166 0
-31 -163 0
-31 -162 0
-31 -165 0
-30 -177 0
-32 -181 0
-33 -177 0
-32 -176 0
-32 -186 0
-30 -183 0
-32 -183 0
-35 -188 0
-35 -194 0
-33 -193 0
-31 -193 0
-30 -192 0
-34 -199 0
-35 -200 0
-29 -200 0
-30 -200 0
-30 -223 0
-29 -222 0
-33 -222 0
-32 -219 0
-30 -229 0
-33 -228 0
-30 -225 0
-31 -231 0
-33 -232 0
-31 -233 0
-32 -237 0
-31 -235 0
-35 -260 0
-32 -261 0
-35 -261 0
-34 -265 0
-38 -70 0
-37 -64 0
-41 -69 0
-36 -69 0
-42 -80 0
-41 -80 0
-37 -80 0
-36 -81 0
-42 -85 0
-41 -87 0
-39 -88 0
-37 -89 0
-42 -110 0
-41 -110 0
-40 -108 0
-38 -106 0
-42 -117 0
-37 -113 0
-38 -113 0
-38 -116 0
-36 -127 0
-38 -128 0
-42 -128 0
-41 -129 0
-41 -136 0
-40 -140 0
-38 -140 0
-37 -138 0
-39 -151 0
-42 -149 0
-39 -153 0
-38 -152 0
-41 -164 0
-40 -164 0
-41 -165 0
-41 -162 0
-38 -211 0
-37 -212 0
-41 -214 0
-40 -211 0
-40 -232 0
-42 -233 0
-41 -236 0
-36 -238 0
-39 -243 0
-42 -240 0
-39 -242 0
-40 -241 0
-38 -252 0
-40 -249 0
-42 -250 0
-37 -251 0
-39 -257 0
-39 -258 0
-38 -257 0
-41 -255 0
-39 -267 0
-40 -272 0
-40 -271 0
-42 -267 0
-38 -280 0
-37 -274 0
-38 -277 0
-37 -277 0
-49 -56 0
-44 -50 0
-46 -50 0
-43 -55 0
-44 -68 0
-43 -65 0
-48 -65 0
-48 -64 0
-49 -76 0
-49 -72 0
-48 -71 0
-44 -76 0
-47 -105 0
-44 -102 0
-46 -102 0
-45 -101 0
-44 -107 0
-46 -111 0
-49 -110 0
-45 -110 0
-43 -130 0
-47 -129 0
-49 -132 0
-45 -129 0
-43 -143 0
-47 -143 0
-43 -145 0
-44 -143 0
-43 -162 0
-47 -166 0
-47 -163 0
-44 -164 0
-45 -169 0
-43 -171 0
-48 -174 0
-48 -173 0
-45 -177 0
-48 -176 0
-44 -178 0
-45 -181 0
-48 -187 0
-48 -183 0
-49 -184 0
-46 -188 0
-47 -222 0
-44 -221 0
-47 -218 0
-44 -222 0
-44 -243 0
-47 -243 0
-48 -244 0
-49 -240 0
-44 -247 0
-49 -251 0
-48 -247 0
-49 -246 0
-43 -271 0
-47 -270 0
-48 -273 0
-49 -273 0
-45 -276 0
-47 -278 0
-43 -276 0
-44 -274 0
-53 -59 0
-53 -58 0
-55 -62 0
-55 -59 0
-56 -68 0
-52 -66 0
-55 -68 0
-55 -66 0
-56 -98 0
-53 -97 0
-54 -97 0
-50 -95 0
-53 -103 0
-52 -101 0
-50 -104 0
-54 -101 0
-55 -122 0
-55 -124 0
-55 -126 0
-50 -120 0
-52 -130 0
-56 -130 0
-50 -129 0
-52 -129 0
-54 -168 0
-50 -168 0
-50 -167 0
-50 -166 0
-51 -174 0
-54 -170 0
-54 -174 0
-55 -170 0
-56 -183 0
-50 -184 0
-56 -189 0
-50 -189 0
-56 -190 0
-53 -193 0
-52 -190 0
-55 -195 0
-51 -201 0
-54 -202 0
-50 -202 0
-53 -197 0
-53 -204 0
-54 -207 0
-56 -206 0
-54 -208 0
-56 -229 0
-50 -228 0
-50 -230 0
-52 -226 0
-54 -246 0
-50 -249 0
-51 -252 0
-53 -246 0
-50 -261 0
-51 -261 0
-53 -264 0
-56 -266 0
-50 -279 0
-52 -280 0
-56 -275 0
-51 -275 0
-57 -65 0
-61 -69 0
-62 -68 0
-61 -64 0
-57 -74 0
-60 -74 0
-58 -75 0
-61 -71 0
-62 -90 0
-62 -88 0
-58 -85 0
-59 -91 0
-57 -108 0
-60 -108 0
-57 -106 0
-58 -106 0
-62 -117 0
-60 -113 0
-58 -115 0
-63 -115 0
-57 -170 0
-62 -174 0
-60 -170 0
-62 -172 0
-63 -180 0
-62 -180 0
-57 -182 0
-60 -182 0
-62 -190 0
-58 -191 0
-63 -190 0
-57 -191 0
-58 -201 0
-59 -203 0
-57 -200 0
-61 -201 0
-62 -219 0
-63 -223 0
-58 -219 0
-61 -218 0
-61 -234 0
-59 -233 0
-63 -235 0
-58 -237 0
-57 -257 0
-63 -256 0
-62 -258 0
-62 -256 0
-61 -260 0
-60 -264 0
-60 -261 0
-59 -265 0
-70 -87 0
-69 -85 0
-70 -89 0
-65 -89 0
-70 -97 0
-64 -92 0
-66 -93 0
-69 -93 0
-66 -101 0
-66 -100 0
-64 -99 0
-70 -103 0
-64 -110 0
-64 -112 0
-70 -107 0
-69 -106 0
-64 -113 0
-65 -113 0
-69 -116 0
-66 -114 0
-70 -122 0
-65 -122 0
-65 -125 0
-68 -123 0
-70 -132 0
-64 -132 0
-64 -131 0
-67 -130 0
-65 -157 0
-66 -160 0
-66 -158 0
-66 -159 0
-68 -182 0
-68 -177 0
-66 -182 0
-68 -180 0
-66 -195 0
-70 -191 0
-69 -192 0
-69 -193 0
-65 -206 0
-64 -205 0
-67 -207 0
-69 -207 0
-66 -233 0
-69 -233 0
-70 -237 0
-68 -235 0
-70 -240 0
-66 -242 0
-70 -239 0
-64 -244 0
-66 -252 0
-67 -251 0
-66 -250 0
-70 -248 0
-64 -257 0
-69 -254 0
-68 -259 0
-69 -255 0
-65 -271 0
-64 -271 0
-70 -269 0
-70 -267 0
-76 -91 0
-72 -86 0
-76 -90 0
-72 -88 0
-75 -99 0
-74 -105 0
-74 -102 0
-77 -100 0
-74 -115 0
-71 -118 0
-71 -114 0
-71 -116 0
-76 -120 0
-77 -122 0
-76 -122 0
-75 -126 0
-77 -127 0
-71 -128 0
-77 -132 0
-72 -128 0
-75 -135 0
-72 -138 0
-75 -136 0
-73 -136 0
-75 -153 0
-71 -154 0
-75 -154 0
-74 -151 0
-72 -174 0
-72 -172 0
-75 -171 0
-75 -172 0
-71 -181 0
-72 -179 0
-74 -180 0
-73 -177 0
-76 -198 0
-71 -199 0
-72 -200 0
-74 -199 0
-75 -231 0
-73 -225 0
-74 -227 0
-72 -225 0
-72 -237 0
-71 -233 0
-72 -232 0
-72 -235 0
-72 -240 0
-71 -239 0
-74 -241 0
-76 -239 0
-71 -261 0
-75 -266 0
-74 -266 0
-74 -261 0
-71 -273 0
-76 -271 0
-77 -270 0
-73 -267 0
-76 -275 0
-73 -280 0
-74 -279 0
-73 -276 0
-78 -90 0
-79 -88 0
-79 -86 0
-80 -87 0
-80 -92 0
-79 -98 0
-82 -94 0
-79 -97 0
-82 -112 0
-78 -107 0
-81 -110 0
-84 -110 0
-79 -116 0
-83 -114 0
-84 -114 0
-80 -118 0
-79 -129 0
-84 -129 0
-81 -131 0
-84 -128 0
-79 -143 0
-81 -146 0
-84 -141 0
-82 -145 0
-81 -149 0
-81 -151 0
-80 -148 0
-79 -154 0
-81 -172 0
-78 -173 0
-80 -169 0
-83 -173 0
-84 -177 0
-81 -178 0
-82 -182 0
-81 -179 0
-79 -183 0
-82 -186 0
-83 -187 0
-84 -183 0
-84 -217 0
-83 -217 0
-82 -216 0
-80 -216 0
-81 -218 0
-80 -223 0
-84 -218 0
-80 -224 0
-79 -231 0
-84 -227 0
-83 -231 0
-80 -231 0
-83 -245 0
-79 -245 0
-84 -240 0
-79 -241 0
-78 -246 0
-78 -250 0
-78 -252 0
-80 -248 0
-81 -264 0
-79 -263 0
-80 -266 0
-83 -265 0
-78 -273 0
-80 -273 0
-81 -273 0
-83 -271 0
-83 -276 0
-81 -279 0
-78 -276 0
-80 -274 0
-87 -97 0
-85 -96 0
-89 -96 0
-88 -93 0
-89 -101 0
-88 -105 0
-90 -100 0
-85 -104 0
-87 -125 0
-86 -123 0
-91 -122 0
-85 -122 0
-87 -130 0
-89 -127 0
-88 -127 0
-89 -130 0
-85 -136 0
-85 -134 0
-85 -139 0
-91 -137 0
-91 -145 0
-90 -147 0
-86 -144 0
-85 -145 0
-88 -148 0
-88 -152 0
-86 -154 0
-88 -149 0
-87 -160 0
-90 -161 0
-91 -159 0
-88 -158 0
-88 -163 0
-87 -167 0
-87 -163 0
-90 -168 0
-88 -179 0
-85 -179 0
-91 -181 0
-89 -182 0
-90 -183 0
-85 -189 0
-88 -185 0
-87 -187 0
-86 -190 0
-85 -196 0
-89 -196 0
-85 -194 0
-88 -227 0
-88 -228 0
-85 -226 0
-89 -226 0
-91 -251 0
-87 -251 0
-88 -252 0
-91 -250 0
-90 -253 0
-91 -257 0
-85 -254 0
-91 -259 0
-98 -107 0
-94 -111 0
-96 -111 0
-98 -110 0
-96 -123 0
-95 -124 0
-93 -120 0
-97 -121 0
-95 -144 0
-94 -143 0
-96 -143 0
-93 -143 0
-94 -153 0
-93 -150 0
-98 -153 0
-96 -148 0
-98 -179 0
-93 -176 0
-93 -177 0
-98 -177 0
-98 -186 0
-97 -183 0
-95 -185 0
-92 -183 0
-97 -205 0
-92 -205 0
-93 -205 0
-95 -209 0
-95 -213 0
-97 -214 0
-97 -211 0
-92 -212 0
-97 -223 0
-97 -220 0
-94 -223 0
-92 -223 0
-93 -244 0
-95 -245 0
-97 -240 0
-96 -245 0
-100 -112 0
-105 -108 0
-105 -109 0
-101 -110 0
-104 -123 0
-99 -126 0
-99 -120 0
-102 -121 0
-100 -131 0
-100 -130 0
-102 -129 0
-104 -129 0
-102 -139 0
-105 -134 0
-101 -135 0
-99 -136 0
-102 -146 0
-99 -144 0
-99 -141 0
-105 -144 0
-101 -165 0
-102 -162 0
-103 -165 0
-104 -163 0
-103 -170 0
-105 -174 0
-99 -171 0
-100 -174 0
-103 -181 0
-104 -178 0
-102 -176 0
-104 -181 0
-103 -186 0
-100 -187 0
-101 -187 0
-105 -189 0
-100 -190 0
-102 -194 0
-104 -195 0
-105 -194 0
-103 -208 0
-104 -207 0
-103 -204 0
-99 -204 0
-101 -217 0
-101 -213 0
-105 -217 0
-104 -217 0
-103 -228 0
-104 -225 0
-103 -231 0
-99 -225 0
-101 -247 0
-101 -248 0
-101 -246 0
-100 -248 0
-102 -258 0
-100 -253 0
-105 -256 0
-100 -259 0
-102 -266 0
-104 -262 0
-100 -264 0
-104 -264 0
-104 -271 0
-104 -273 0
-103 -272 0
-102 -270 0
-107 -122 0
-107 -126 0
-111 -126 0
-106 -125 0
-107 -127 0
-112 -132 0
-107 -129 0
-111 -127 0
-106 -180 0
-107 -178 0
-109 -176 0
-110 -182 0
-112 -213 0
-112 -212 0
-111 -212 0
-107 -215 0
-111 -221 0
-107 -221 0
-112 -219 0
-112 -221 0
-112 -245 0
-107 -245 0
-108 -239 0
-106 -241 0
-109 -264 0
-111 -261 0
-106 -266 0
-108 -263 0
-108 -272 0
-109 -268 0
-107 -273 0
-107 -272 0
-115 -121 0
-115 -125 0
-114 -125 0
-114 -121 0
-113 -130 0
-116 -133 0
-114 -130 0
-119 -130 0
-118 -136 0
-118 -137 0
-118 -139 0
-115 -136 0
-118 -149 0
-116 -149 0
-117 -152 0
-113 -154 0
-114 -168 0
-114 -163 0
-117 -165 0
-116 -164 0
-114 -199 0
-113 -199 0
-118 -202 0
-118 -198 0
-115 -222 0
-118 -218 0
-113 -222 0
-116 -223 0
-115 -244 0
-116 -245 0
-117 -244 0
-118 -245 0
-116 -270 0
-114 -273 0
-115 -272 0
-119 -271 0
-117 -274 0
-113 -280 0
-113 -275 0
-114 -279 0
-120 -131 0
-125 -133 0
-125 -128 0
-121 -127 0
-121 -158 0
-124 -161 0
-122 -155 0
-122 -156 0
-124 -165 0
-123 -166 0
-126 -162 0
-121 -162 0
-122 -170 0
-123 -169 0
-120 -172 0
-123 -175 0
-125 -182 0
-126 -179 0
-123 -180 0
-126 -176 0
-126 -193 0
-120 -195 0
-126 -195 0
-124 -196 0
-122 -203 0
-126 -202 0
-123 -199 0
-125 -197 0
-126 -206 0
-121 -210 0
-123 -205 0
-124 -206 0
-120 -231 0
-122 -228 0
-123 -229 0
-120 -228 0
-126 -236 0
-121 -237 0
-125 -238 0
-123 -238 0
-125 -243 0
-122 -239 0
-120 -243 0
-123 -243 0
-121 -254 0
-122 -259 0
-124 -253 0
-123 -256 0
-131 -164 0
-131 -165 0
-132 -167 0
-128 -167 0
-128 -183 0
-133 -183 0
-131 -183 0
-130 -184 0
-128 -195 0
-128 -191 0
-131 -192 0
-133 -195 0
-133 -202 0
-130 -201 0
-133 -203 0
-129 -201 0
-127 -213 0
-132 -216 0
-130 -215 0
-129 -213 0
-127 -245 0
-129 -240 0
-130 -242 0
-129 -243 0
-128 -260 0
-130 -266 0
-128 -265 0
-133 -263 0
-127 -274 0
-133 -279 0
-128 -277 0
-131 -275 0
-135 -151 0
-137 -149 0
-134 -150 0
-140 -149 0
-139 -174 0
-136 -169 0
-136 -170 0
-137 -174 0
-140 -187 0
-138 -186 0
-140 -183 0
-137 -183 0
-134 -191 0
-140 -194 0
-139 -194 0
-138 -195 0
-140 -205 0
-138 -205 0
-134 -207 0
-139 -206 0
-135 -224 0
-139 -223 0
-138 -222 0
-137 -218 0
-140 -236 0
-137 -232 0
-140 -233 0
-135 -233 0
-136 -246 0
-136 -247 0
-134 -248 0
-135 -247 0
-147 -158 0
-146 -155 0
-142 -159 0
-141 -160 0
-142 -163 0
-142 -167 0
-147 -165 0
-144 -165 0
-141 -185 0
-145 -186 0
-143 -188 0
-145 -187 0
-141 -192 0
-144 -195 0
-146 -193 0
-142 -193 0
-142 -202 0
-147 -198 0
-146 -198 0
-144 -202 0
-147 -206 0
-145 -206 0
-141 -205 0
-143 -204 0
-144 -240 0
-141 -243 0
-144 -244 0
-144 -239 0
-145 -251 0
-141 -251 0
-146 -248 0
-144 -246 0
-145 -256 0
-142 -255 0
-146 -253 0
-145 -258 0
-145 -262 0
-142 -262 0
-147 -260 0
-146 -262 0
-141 -272 0
-144 -269 0
-141 -273 0
-142 -269 0
-151 -155 0
-152 -158 0
-148 -157 0
-152 -155 0
-151 -175 0
-153 -169 0
-148 -170 0
-152 -170 0
-149 -185 0
-149 -188 0
-151 -183 0
-151 -186 0
-151 -198 0
-150 -199 0
-151 -202 0
-152 -199 0
-148 -226 0
-154 -226 0
-150 -228 0
-152 -231 0
-149 -237 0
-151 -232 0
-149 -238 0
-152 -233 0
-149 -257 0
-151 -259 0
-150 -259 0
-148 -259 0
-148 -272 0
-151 -268 0
-148 -267 0
-153 -268 0
-155 -176 0
-155 -181 0
-158 -178 0
-155 -180 0
-158 -213 0
-159 -212 0
-156 -211 0
-156 -217 0
-155 -238 0
-155 -233 0
-160 -233 0
-157 -236 0
-161 -253 0
-157 -253 0
-155 -255 0
-156 -254 0
-159 -264 0
-159 -261 0
-155 -261 0
-161 -261 0
-156 -270 0
-156 -273 0
-155 -271 0
-155 -267 0
-158 -278 0
-157 -276 0
-155 -274 0
-155 -277 0
-167 -174 0
-164 -172 0
-163 -173 0
-163 -169 0
-162 -177 0
-163 -179 0
-167 -177 0
-167 -178 0
-168 -187 0
-166 -188 0
-164 -183 0
-165 -183 0
-162 -196 0
-167 -191 0
-163 -194 0
-163 -191 0
-163 -203 0
-162 -200 0
-166 -200 0
-168 -201 0
-164 -210 0
-167 -207 0
-164 -204 0
-163 -207 0
-166 -223 0
-166 -222 0
-162 -224 0
-168 -218 0
-166 -225 0
-162 -226 0
-163 -228 0
-164 -230 0
-168 -243 0
-167 -245 0
-168 -242 0
-163 -241 0
-162 -247 0
-166 -252 0
-162 -249 0
-168 -246 0
-164 -257 0
-165 -253 0
-162 -256 0
-165 -259 0
-166 -261 0
-165 -265 0
-167 -266 0
-163 -263 0
-167 -273 0
-162 -273 0
-162 -270 0
-163 -271 0
-164 -275 0
-168 -274 0
-166 -279 0
-165 -279 0
-171 -198 0
-169 -200 0
-169 -198 0
-175 -198 0
-172 -257 0
-174 -258 0
-169 -259 0
-170 -253 0
-169 -267 0
-169 -269 0
-170 -273 0
-172 -272 0
-170 -276 0
-171 -279 0
-175 -278 0
-169 -279 0
-180 -186 0
-182 -186 0
-176 -184 0
-179 -188 0
-177 -217 0
-179 -214 0
-179 -215 0
-176 -216 0
-178 -232 0
-177 -234 0
-179 -237 0
-181 -233 0
-189 -192 0
-183 -195 0
-189 -190 0
-189 -193 0
-186 -201 0
-187 -201 0
-183 -198 0
-183 -199 0
-185 -234 0
-186 -235 0
-187 -232 0
-184 -233 0
-183 -247 0
-187 -252 0
-186 -252 0
-186 -248 0
-187 -265 0
-187 -263 0
-187 -264 0
-187 -260 0
-184 -277 0
-189 -279 0
-186 -277 0
-185 -279 0
-194 -207 0
-196 -208 0
-193 -208 0
-190 -209 0
-194 -217 0
-192 -216 0
-195 -213 0
-196 -216 0
-195 -236 0
-196 -234 0
-192 -237 0
-190 -233 0
-193 -251 0
-195 -249 0
-190 -249 0
-191 -246 0
-190 -256 0
-195 -256 0
-192 -259 0
-193 -253 0
-196 -269 0
-190 -271 0
-192 -272 0
-196 -273 0
-191 -278 0
-194 -280 0
-191 -279 0
-190 -278 0
-198 -217 0
-201 -215 0
-203 -212 0
-200 -216 0
-203 -224 0
-203 -218 0
-200 -218 0
-201 -220 0
-200 -235 0
-198 -238 0
-201 -233 0
-199 -236 0
-198 -253 0
-198 -259 0
-203 -253 0
-198 -255 0
-202 -262 0
-202 -261 0
-197 -263 0
-200 -261 0
-198 -271 0
-197 -270 0
-201 -268 0
-203 -268 0
-206 -215 0
-207 -213 0
-205 -215 0
-205 -214 0
-208 -233 0
-205 -237 0
-208 -236 0
-206 -233 0
-205 -246 0
-206 -251 0
-209 -246 0
-205 -249 0
-206 -273 0
-208 -270 0
-204 -271 0
-204 -268 0
-212 -220 0
-213 -219 0
-211 -219 0
-214 -219 0
-215 -240 0
-211 -239 0
-214 -245 0
-213 -239 0
-212 -253 0
-213 -255 0
-212 -257 0
-215 -255 0
-214 -277 0
-217 -276 0
-217 -275 0
-217 -279 0
-224 -245 0
-223 -245 0
-218 -243 0
-220 -243 0
-219 -249 0
-218 -247 0
-222 -251 0
-221 -247 0
-224 -257 0
-220 -253 0
-223 -256 0
-219 -259 0
-223 -265 0
-223 -262 0
-220 -264 0
-219 -262 0
-222 -267 0
-222 -271 0
-222 -269 0
-223 -273 0
-226 -248 0
-227 -251 0
-227 -248 0
-229 -252 0
-226 -263 0
-226 -262 0
-225 -264 0
-231 -264 0
-226 -278 0
-227 -276 0
-231 -277 0
-230 -279 0
-233 -240 0
-234 -244 0
-236 -244 0
-235 -240 0
-234 -258 0
-236 -255 0
-233 -254 0
-234 -259 0
-236 -269 0
-233 -271 0
-238 -267 0
-234 -268 0
-237 -275 0
-233 -280 0
-238 -277 0
-233 -277 0
-239 -250 0
-244 -248 0
-241 -247 0
-242 -248 0
-243 -257 0
-244 -258 0
-240 -254 0
-242 -253 0
-240 -261 0
-245 -260 0
-242 -266 0
-242 -261 0
-240 -272 0
-244 -270 0
-244 -268 0
-240 -269 0
-248 -256 0
-250 -255 0
-246 -255 0
-250 -256 0
-251 -268 0
-247 -273 0
-247 -272 0
-251 -270 0
-251 -276 0
-250 -276 0
-252 -274 0
-246 -278 0
-253 -265 0
-255 -260 0
-254 -263 0
-253 -261 0
-257 -279 0
-254 -279 0
-254 -275 0
-258 -277 0
-272 -278 0
-273 -274 0
-271 -280 0
-271 -278 0
